WARNING: for repeatability, setting FPU to use double precision
============================[ Problem Statistics ]=============================
|                                                                             |
|  Number of variables:          4351                                         |
|  Number of clauses:           31749                                         |
|  Parse time:                   0.02 s                                       |
|  Eliminated clauses:           0.01 Mb                                      |
|  Simplification time:          0.01 s                                       |
|                                                                             |
============================[ Search Statistics ]==============================
| Conflicts |          ORIGINAL         |          LEARNT          | Progress |
|           |    Vars  Clauses Literals |    Limit  Clauses Lit/Cl |          |
===============================================================================
|       100 |     684     5163    13985 |     1893      100     12 | 75.408 % |
|       250 |     684     5163    13985 |     2082      250     20 | 75.408 % |
===============================================================================
restarts              : 3
conflicts             : 332            (9428 /sec)
decisions             : 937            (0.00 % random) (26609 /sec)
propagations          : 15854          (450219 /sec)
conflict literals     : 8824           (6.28 % deleted)
Memory used           : 23.00 MB
CPU time              : 0.035214 s

SATISFIABLE
WARNING: for repeatability, setting FPU to use double precision
============================[ Problem Statistics ]=============================
|                                                                             |
|  Number of variables:          4351                                         |
|  Number of clauses:           31749                                         |
|  Parse time:                   0.01 s                                       |
|  Eliminated clauses:           0.01 Mb                                      |
|  Simplification time:          0.01 s                                       |
|                                                                             |
============================[ Search Statistics ]==============================
| Conflicts |          ORIGINAL         |          LEARNT          | Progress |
|           |    Vars  Clauses Literals |    Limit  Clauses Lit/Cl |          |
===============================================================================
|       100 |     684     5163    13985 |     1893      100     12 | 75.408 % |
|       250 |     684     5163    13985 |     2082      250     20 | 75.408 % |
===============================================================================
restarts              : 3
conflicts             : 332            (13681 /sec)
decisions             : 937            (0.00 % random) (38611 /sec)
propagations          : 15854          (653288 /sec)
conflict literals     : 8824           (6.28 % deleted)
Memory used           : 23.00 MB
CPU time              : 0.024268 s

SATISFIABLE
